NAME : X-n153-k22
COMMENT : "Generated by Uchoa, Pecin, Pessoa, Poggi, Subramanian, and Vidal (2013)"
TYPE : CVRP
DIMENSION : 153
EDGE_WEIGHT_TYPE : EUC_2D
CAPACITY : 144
NODE_COORD_SECTION
1 500 500
2 238 446
3 749 750
4 960 879
5 955 866
6 202 336
7 720 788
8 695 743
9 739 603
10 217 419
11 922 870
12 703 733
13 843 856
14 233 682
15 259 459
16 226 305
17 732 722
18 747 858
19 949 784
20 904 891
21 880 795
22 591 661
23 984 926
24 246 438
25 183 501
26 546 966
27 742 771
28 110 698
29 193 441
30 215 388
31 232 516
32 907 954
33 133 526
34 750 680
35 397 553
36 103 488
37 663 731
38 784 686
39 754 821
40 280 456
41 236 424
42 287 454
43 598 728
44 996 821
45 853 710
46 744 473
47 887 907
48 286 422
49 857 633
50 272 484
51 934 625
52 939 892
53 810 732
54 631 723
55 822 694
56 769 768
57 977 840
58 639 736
59 727 765
60 950 896
61 206 433
62 207 535
63 164 586
64 754 691
65 662 768
66 348 308
67 254 455
68 130 482
69 764 726
70 713 758
71 965 934
72 693 734
73 890 801
74 808 675
75 393 484
76 727 808
77 955 756
78 854 640
79 249 552
80 188 479
81 187 506
82 901 767
83 664 770
84 558 530
85 714 742
86 979 683
87 200 416
88 294 391
89 344 471
90 240 449
91 735 633
92 944 952
93 157 421
94 768 750
95 813 936
96 534 720
97 986 914
98 963 798
99 905 579
100 175 397
101 972 940
102 184 561
103 357 399
104 859 770
105 661 762
106 298 469
107 14 438
108 275 561
109 856 919
110 219 453
111 272 465
112 294 296
113 754 775
114 229 467
115 946 778
116 711 803
117 858 879
118 665 347
119 981 802
120 924 973
121 267 545
122 760 764
123 942 894
124 219 465
125 665 756
126 92 212
127 920 940
128 937 814
129 804 654
130 281 489
131 669 647
132 308 309
133 998 876
134 900 910
135 753 900
136 873 706
137 209 467
138 991 966
139 766 729
140 341 458
141 897 957
142 224 368
143 818 679
144 707 703
145 280 450
146 252 462
147 717 683
148 458 236
149 989 489
150 278 356
151 144 446
152 991 818
153 831 812
PICKUP_AND_DELIVERY_SECTION
1 0 0 1000000000 0 0 0
2 0 0 1000000000 0 0 92
3 0 0 1000000000 0 0 90
4 0 0 1000000000 0 0 65
5 0 0 1000000000 0 80 0
6 0 0 1000000000 0 0 69
7 0 0 1000000000 0 0 64
8 0 0 1000000000 0 0 73
9 0 0 1000000000 0 96 0
10 0 0 1000000000 0 0 74
11 0 0 1000000000 0 0 81
12 0 0 1000000000 0 0 67
13 0 0 1000000000 0 58 0
14 0 0 1000000000 0 0 79
15 0 0 1000000000 0 0 85
16 0 0 1000000000 0 0 57
17 0 0 1000000000 0 90 0
18 0 0 1000000000 0 0 84
19 0 0 1000000000 0 0 84
20 0 0 1000000000 0 0 92
21 0 0 1000000000 0 87 0
22 0 0 1000000000 0 0 95
23 0 0 1000000000 0 0 66
24 0 0 1000000000 0 0 86
25 0 0 1000000000 0 90 0
26 0 0 1000000000 0 0 94
27 0 0 1000000000 0 0 84
28 0 0 1000000000 0 0 98
29 0 0 1000000000 0 65 0
30 0 0 1000000000 0 0 68
31 0 0 1000000000 0 0 73
32 0 0 1000000000 0 0 51
33 0 0 1000000000 0 6 0
34 0 0 1000000000 0 0 7
35 0 0 1000000000 0 0 6
36 0 0 1000000000 0 0 3
37 0 0 1000000000 0 2 0
38 0 0 1000000000 0 0 3
39 0 0 1000000000 0 0 7
40 0 0 1000000000 0 0 2
41 0 0 1000000000 0 9 0
42 0 0 1000000000 0 0 1
43 0 0 1000000000 0 0 6
44 0 0 1000000000 0 0 4
45 0 0 1000000000 0 8 0
46 0 0 1000000000 0 0 2
47 0 0 1000000000 0 0 8
48 0 0 1000000000 0 0 5
49 0 0 1000000000 0 9 0
50 0 0 1000000000 0 0 2
51 0 0 1000000000 0 0 1
52 0 0 1000000000 0 0 3
53 0 0 1000000000 0 9 0
54 0 0 1000000000 0 0 8
55 0 0 1000000000 0 0 9
56 0 0 1000000000 0 0 6
57 0 0 1000000000 0 1 0
58 0 0 1000000000 0 0 4
59 0 0 1000000000 0 0 8
60 0 0 1000000000 0 0 3
61 0 0 1000000000 0 5 0
62 0 0 1000000000 0 0 3
63 0 0 1000000000 0 0 2
64 0 0 1000000000 0 0 4
65 0 0 1000000000 0 10 0
66 0 0 1000000000 0 0 4
67 0 0 1000000000 0 0 7
68 0 0 1000000000 0 0 8
69 0 0 1000000000 0 9 0
70 0 0 1000000000 0 0 8
71 0 0 1000000000 0 0 4
72 0 0 1000000000 0 0 8
73 0 0 1000000000 0 5 0
74 0 0 1000000000 0 0 1
75 0 0 1000000000 0 0 9
76 0 0 1000000000 0 0 5
77 0 0 1000000000 0 6 0
78 0 0 1000000000 0 0 9
79 0 0 1000000000 0 0 3
80 0 0 1000000000 0 0 3
81 0 0 1000000000 0 8 0
82 0 0 1000000000 0 0 6
83 0 0 1000000000 0 0 9
84 0 0 1000000000 0 0 4
85 0 0 1000000000 0 3 0
86 0 0 1000000000 0 0 5
87 0 0 1000000000 0 0 9
88 0 0 1000000000 0 0 5
89 0 0 1000000000 0 2 0
90 0 0 1000000000 0 0 4
91 0 0 1000000000 0 0 4
92 0 0 1000000000 0 0 8
93 0 0 1000000000 0 10 0
94 0 0 1000000000 0 0 4
95 0 0 1000000000 0 0 5
96 0 0 1000000000 0 0 2
97 0 0 1000000000 0 3 0
98 0 0 1000000000 0 0 1
99 0 0 1000000000 0 0 3
100 0 0 1000000000 0 0 1
101 0 0 1000000000 0 10 0
102 0 0 1000000000 0 0 1
103 0 0 1000000000 0 0 7
104 0 0 1000000000 0 0 5
105 0 0 1000000000 0 1 0
106 0 0 1000000000 0 0 7
107 0 0 1000000000 0 0 8
108 0 0 1000000000 0 0 10
109 0 0 1000000000 0 9 0
110 0 0 1000000000 0 0 1
111 0 0 1000000000 0 0 4
112 0 0 1000000000 0 0 7
113 0 0 1000000000 0 6 0
114 0 0 1000000000 0 0 2
115 0 0 1000000000 0 0 4
116 0 0 1000000000 0 0 5
117 0 0 1000000000 0 2 0
118 0 0 1000000000 0 0 1
119 0 0 1000000000 0 0 5
120 0 0 1000000000 0 0 6
121 0 0 1000000000 0 3 0
122 0 0 1000000000 0 0 2
123 0 0 1000000000 0 0 7
124 0 0 1000000000 0 0 9
125 0 0 1000000000 0 1 0
126 0 0 1000000000 0 0 1
127 0 0 1000000000 0 0 5
128 0 0 1000000000 0 0 8
129 0 0 1000000000 0 8 0
130 0 0 1000000000 0 0 2
131 0 0 1000000000 0 0 7
132 0 0 1000000000 0 0 5
133 0 0 1000000000 0 9 0
134 0 0 1000000000 0 0 5
135 0 0 1000000000 0 0 8
136 0 0 1000000000 0 0 5
137 0 0 1000000000 0 9 0
138 0 0 1000000000 0 0 1
139 0 0 1000000000 0 0 6
140 0 0 1000000000 0 0 1
141 0 0 1000000000 0 9 0
142 0 0 1000000000 0 0 9
143 0 0 1000000000 0 0 3
144 0 0 1000000000 0 0 1
145 0 0 1000000000 0 8 0
146 0 0 1000000000 0 0 2
147 0 0 1000000000 0 0 8
148 0 0 1000000000 0 0 8
149 0 0 1000000000 0 10 0
150 0 0 1000000000 0 0 9
151 0 0 1000000000 0 0 1
152 0 0 1000000000 0 0 1
153 0 0 1000000000 0 8 0
